RT is False
Default write of storage_offers_DA.csv just to have a file (but constraint should be inactive)
Reading model...
...model read.
creating competitive generators file...
...competitive generators recorded.
Loading data...
.. day-ahead data with real-time VRE data read.
Compiling instance...
...instance created.
Creating Offer Mitigation (model will solve as dispatch if TRUE)...
Solving...

Welcome to IBM(R) ILOG(R) CPLEX(R) Interactive Optimizer 12.9.0.0
  with Simplex, Mixed Integer & Barrier Optimizers
5725-A06 5725-A29 5724-Y48 5724-Y49 5724-Y54 5724-Y55 5655-Y21
Copyright IBM Corp. 1988, 2019.  All Rights Reserved.

Type 'help' for a list of available commands.
Type 'help' followed by a command name for more
information on commands.

CPLEX> Logfile 'cplex.log' closed.
Logfile 'C:\Users\llavin\Desktop\test919\logs\tmpokj4nttp.cplex.log' open.
CPLEX> New value for parallel optimization mode: -1
CPLEX> New value for mixed integer optimality gap tolerance: 0.01
CPLEX> New value for integrality tolerance: 1e-09
CPLEX> New value for feasibility tolerance: 0.01
CPLEX> New value for deterministic time limit in ticks: 75000
CPLEX> Problem 'C:\Users\llavin\Desktop\test919\logs\tmpzzm0feum.pyomo.lp' read.
Read time = 0.06 sec. (3.04 ticks)
CPLEX> Problem name         : C:\Users\llavin\Desktop\test919\logs\tmpzzm0feum.pyomo.lp
Objective sense      : Minimize
Variables            :   26081  [Nneg: 1,  Box: 21616,  Free: 4464]
Objective nonzeros   :    2496
Linear constraints   :   27515  [Less: 14006,  Greater: 4416,  Equal: 9093]
  Nonzeros           :   89267
  RHS nonzeros       :   12264

Variables            : Min LB: -5000.000        Max UB: 1000000.       
Objective nonzeros   : Min   : 15.73158         Max   : 124.0997       
Linear constraints   :
  Nonzeros           : Min   : 0.8500000        Max   : 3000.000       
  RHS nonzeros       : Min   : 0.008333333      Max   : 5000.000       
CPLEX> CPXPARAM_Parallel                                -1
CPXPARAM_Simplex_Tolerances_Feasibility          0.01
CPXPARAM_DetTimeLimit                            75000
CPXPARAM_MIP_Tolerances_MIPGap                   0.01
CPXPARAM_MIP_Tolerances_Integrality              1.0000000000000001e-09
Parallel mode: opportunistic, using up to 32 threads for concurrent optimization.
Tried aggregator 1 time.
LP Presolve eliminated 21353 rows and 15463 columns.
Aggregator did 773 substitutions.
Reduced LP has 5389 rows, 9845 columns, and 31806 nonzeros.
Presolve time = 0.05 sec. (30.44 ticks)
Symmetry aggregator did 5563 additional substitutions.

Iteration log . . .
Iteration:     1   Dual objective     =             0.000000
Perturbation started.
Iteration:   101   Dual objective     =             0.000000
Iteration:   335   Dual objective     =             1.229895
Iteration:   593   Dual objective     =             1.753815
Iteration:   851   Dual objective     =             1.893108
Iteration:  1063   Dual objective     =             2.007134
Iteration:  1336   Dual objective     =             2.052519
Iteration:  1582   Dual objective     =             2.079305
Iteration:  1799   Dual objective     =             2.105524
Iteration:  2001   Dual objective     =             2.129762
Iteration:  2196   Dual objective     =             2.138045
Iteration:  2418   Dual objective     =         15809.101443
Iteration:  2707   Dual objective     =         22465.974620
Iteration:  3092   Dual objective     =         23866.131716
Removing perturbation.
Using devex.

Primal simplex solved model.


Primal simplex - Optimal:  Objective =  2.3863973473e+04
Solution time =    0.16 sec.  Iterations = 1737 (1067)
Deterministic time = 78.01 ticks  (500.04 ticks/sec)

CPLEX> Solution written to file 'C:\Users\llavin\Desktop\test919\logs\tmpin1x9f9f.cplex.sol'.
CPLEX> Exporting results... 
...storage offer mitigation file created
Converting model to MPEC...
...converted
NOTE: initial MIP solve with only storage competitive to get feasible solution
Solving...

Welcome to IBM(R) ILOG(R) CPLEX(R) Interactive Optimizer 12.9.0.0
  with Simplex, Mixed Integer & Barrier Optimizers
5725-A06 5725-A29 5724-Y48 5724-Y49 5724-Y54 5724-Y55 5655-Y21
Copyright IBM Corp. 1988, 2019.  All Rights Reserved.

Type 'help' for a list of available commands.
Type 'help' followed by a command name for more
information on commands.

CPLEX> Logfile 'cplex.log' closed.
Logfile 'C:\Users\llavin\Desktop\test919\logs\tmpt8ux55a6.cplex.log' open.
CPLEX> New value for parallel optimization mode: -1
CPLEX> New value for mixed integer optimality gap tolerance: 0.01
CPLEX> New value for integrality tolerance: 1e-09
CPLEX> New value for feasibility tolerance: 0.01
CPLEX> New value for deterministic time limit in ticks: 75000
CPLEX> Problem 'C:\Users\llavin\Desktop\test919\logs\tmpbqj68bf3.pyomo.lp' read.
Read time = 0.23 sec. (14.78 ticks)
CPLEX> Problem name         : C:\Users\llavin\Desktop\test919\logs\tmpbqj68bf3.pyomo.lp
Objective sense      : Maximize
Variables            :   53805  [Nneg: 1,  Box: 22000,  Free: 4464,
                                 Binary: 27340]
Objective nonzeros   :    8973
Linear constraints   :  123205  [Less: 41346,  Greater: 59096,  Equal: 22763]
  Nonzeros           :  291794
  RHS nonzeros       :   67404

Variables            : Min LB: -5000.000        Max UB: 1000000.       
Objective nonzeros   : Min   : 0.008333333      Max   : 831.1750       
Linear constraints   :
  Nonzeros           : Min   : 0.008333333      Max   : 1000000.       
  RHS nonzeros       : Min   : 0.008333333      Max   : 1000000.       
CPLEX> CPXPARAM_Parallel                                -1
CPXPARAM_Simplex_Tolerances_Feasibility          0.01
CPXPARAM_DetTimeLimit                            75000
CPXPARAM_MIP_Tolerances_MIPGap                   0.01
CPXPARAM_MIP_Tolerances_Integrality              1.0000000000000001e-09
Tried aggregator 3 times.
MIP Presolve eliminated 88663 rows and 18960 columns.
MIP Presolve added 3384 rows and 0 columns.
MIP Presolve modified 24853 coefficients.
Aggregator did 12991 substitutions.
Reduced MIP has 24935 rows, 21295 columns, and 71170 nonzeros.
Reduced MIP has 8403 binaries, 0 generals, 0 SOSs, and 0 indicators.
Presolve time = 0.30 sec. (173.73 ticks)
Probing fixed 376 vars, tightened 2807 bounds.
Probing time = 1.19 sec. (879.52 ticks)
Tried aggregator 2 times.
MIP Presolve eliminated 847 rows and 753 columns.
MIP Presolve modified 2185 coefficients.
Aggregator did 42 substitutions.
Reduced MIP has 24046 rows, 20500 columns, and 68592 nonzeros.
Reduced MIP has 8027 binaries, 0 generals, 0 SOSs, and 0 indicators.
Presolve time = 0.11 sec. (69.03 ticks)
Probing time = 0.03 sec. (15.89 ticks)
Clique table members: 6389.
MIP emphasis: balance optimality and feasibility.
MIP search method: dynamic search.
Parallel mode: opportunistic, using up to 32 threads.
Root relaxation solution time = 0.31 sec. (243.79 ticks)

        Nodes                                         Cuts/
   Node  Left     Objective  IInf  Best Integer    Best Bound    ItCnt     Gap

      0     0     2914.3552  1557                   2914.3552     5582         
*     0     0      integral     0     2914.3552     2914.3552     5582    0.00%
Elapsed time = 4.02 sec. (3016.05 ticks, tree = 0.01 MB, solutions = 1)

Root node processing (before b&c):
  Real time             =    4.03 sec. (3018.00 ticks)
Parallel b&c, 32 threads:
  Real time             =    0.00 sec. (0.00 ticks)
  Sync time (average)   =    0.00 sec.
  Wait time (average)   =    0.00 sec.
                          ------------
Total (root+branch&cut) =    4.03 sec. (3018.00 ticks)

Solution pool: 1 solution saved.

MIP - Integer optimal solution:  Objective =  2.9143551800e+03
Solution time =    4.05 sec.  Iterations = 5582  Nodes = 0
Deterministic time = 3018.16 ticks  (745.78 ticks/sec)

CPLEX> Incumbent solution written to file 'C:\Users\llavin\Desktop\test919\logs\tmp9t7ygmaz.cplex.sol'.
CPLEX> NOTE: no warmstart specified for MIP iteration, default behavior is true
NOTE: resolving with all competitive generators using storage-only solution to warmstart
Solving...

Welcome to IBM(R) ILOG(R) CPLEX(R) Interactive Optimizer 12.9.0.0
  with Simplex, Mixed Integer & Barrier Optimizers
5725-A06 5725-A29 5724-Y48 5724-Y49 5724-Y54 5724-Y55 5655-Y21
Copyright IBM Corp. 1988, 2019.  All Rights Reserved.

Type 'help' for a list of available commands.
Type 'help' followed by a command name for more
information on commands.

CPLEX> Logfile 'cplex.log' closed.
Logfile 'C:\Users\llavin\Desktop\test919\logs\tmpptuchguz.cplex.log' open.
CPLEX> New value for parallel optimization mode: -1
CPLEX> New value for mixed integer optimality gap tolerance: 0.01
CPLEX> New value for integrality tolerance: 1e-09
CPLEX> New value for feasibility tolerance: 0.01
CPLEX> New value for deterministic time limit in ticks: 75000
CPLEX> Problem 'C:\Users\llavin\Desktop\test919\logs\tmpuemn3w86.pyomo.lp' read.
Read time = 0.25 sec. (14.81 ticks)
CPLEX> MIP start file 'C:\Users\llavin\Desktop\test919\logs\tmpg9ta4msd.cplex.mst' read.
CPLEX> Problem name         : C:\Users\llavin\Desktop\test919\logs\tmpuemn3w86.pyomo.lp
Objective sense      : Maximize
Variables            :   54525  [Nneg: 1,  Box: 22720,  Free: 4464,
                                 Binary: 27340]
Objective nonzeros   :    9669
Linear constraints   :  123205  [Less: 41346,  Greater: 59096,  Equal: 22763]
  Nonzeros           :  291794
  RHS nonzeros       :   67404

Variables            : Min LB: -5000.000        Max UB: 1000000.       
Objective nonzeros   : Min   : 0.008333333      Max   : 786.0583       
Linear constraints   :
  Nonzeros           : Min   : 0.008333333      Max   : 1000000.       
  RHS nonzeros       : Min   : 0.008333333      Max   : 1000000.       
CPLEX> CPXPARAM_Parallel                                -1
CPXPARAM_Simplex_Tolerances_Feasibility          0.01
CPXPARAM_DetTimeLimit                            75000
CPXPARAM_MIP_Tolerances_MIPGap                   0.01
CPXPARAM_MIP_Tolerances_Integrality              1.0000000000000001e-09
Warning:  No solution found from 1 MIP starts.
Retaining values of one MIP start for possible repair.
Tried aggregator 3 times.
MIP Presolve eliminated 88663 rows and 19680 columns.
MIP Presolve added 3384 rows and 0 columns.
MIP Presolve modified 24853 coefficients.
Aggregator did 12991 substitutions.
Reduced MIP has 24935 rows, 21295 columns, and 71170 nonzeros.
Reduced MIP has 8403 binaries, 0 generals, 0 SOSs, and 0 indicators.
Presolve time = 0.30 sec. (174.10 ticks)
Probing fixed 376 vars, tightened 2807 bounds.
Probing time = 1.20 sec. (879.52 ticks)
Tried aggregator 2 times.
MIP Presolve eliminated 847 rows and 753 columns.
MIP Presolve modified 2185 coefficients.
Aggregator did 42 substitutions.
Reduced MIP has 24046 rows, 20500 columns, and 68592 nonzeros.
Reduced MIP has 8027 binaries, 0 generals, 0 SOSs, and 0 indicators.
Presolve time = 0.11 sec. (69.04 ticks)
Probing time = 0.05 sec. (15.89 ticks)
Clique table members: 6389.
MIP emphasis: balance optimality and feasibility.
MIP search method: dynamic search.
Parallel mode: opportunistic, using up to 32 threads.
Root relaxation solution time = 0.33 sec. (245.88 ticks)

        Nodes                                         Cuts/
   Node  Left     Objective  IInf  Best Integer    Best Bound    ItCnt     Gap

      0     0   108234.4282  1751                 108234.4282     5573         
      0     0   106092.1207   731                   Cuts: 524     5865         
      0     0   105837.7599   651                   Cuts: 156     5951         
      0     0   105748.4968   631                    Cuts: 91     5992         
      0     0   103045.7368   596                    Cuts: 89     6070         
      0     0   102493.9712   577                   Cuts: 127     6120         
      0     0   102454.8907   570                    Cuts: 66     6145         
      0     0   102023.1239   551                    Cuts: 62     6176         
      0     0   101727.1976   552                    Cuts: 51     6199         
      0     0   101658.4218   545                    Cuts: 49     6209         
      0     0   101611.5846   538                    Cuts: 59     6224         
      0     0   101477.4543   537                    Cuts: 50     6233         
      0     0   101476.0213   538                    Cuts: 48     6237         
      0     0   101461.8671   539                    Cuts: 48     6240         
      0     0   101432.4868   537                    Cuts: 49     6244         
      0     0   101432.4868   537                    Cuts: 49     6244         
Repair heuristic found nothing.
      0     2   101432.4868   537                    Cuts: 17     6244         
Elapsed time = 13.41 sec. (7646.79 ticks, tree = 0.02 MB, solutions = 0)
    366    54    66834.8347   507                  95868.9161     7465         
    814   529    43638.6229   434                  95868.9161    15380         
   1374   990     5706.7330   383                  95868.9161    24178         
   2250   958   -28823.3995   449                  95868.9161    23856         
   3208  1359   -13852.7197   436                  95868.9161    33965         
   3998  2113    19711.6850   367                  95868.9161    42331         
   4803  2116    -8707.6523   355                  95868.9161    42901         
   5579  2883    21703.7178   417                  95868.9161    47984         
   6410  3817   -11268.0718   333                  95868.9161    53907         
  11175  7107   -11416.0125   263                  95868.9161    60956         
Elapsed time = 31.11 sec. (10749.16 ticks, tree = 77.33 MB, solutions = 0)
* 13852+ 9741                       -13706.9869    95868.9161           799.42%
  16640 10066    22067.8857   372   -13706.9869    95868.9161    76092  799.42%
  16856 11859    infeasible         -13706.9869    71187.3077    98996  619.35%
  18243   275    -3445.0538    81   -13706.9869    59102.9248   108177  531.19%
  19649   924    -7811.7490    89   -13706.9869    59102.9248   132490  531.19%
  22611  2789    11443.7864    59   -13706.9869    52368.2495   168252  482.06%
  25246  4678     5182.9330    48   -13706.9869    38189.8382   191444  378.62%
  27495  5331        cutoff         -13706.9869    38189.8382   199615  378.62%
  29215  6159    11896.3376     5   -13706.9869    35001.4455   208820  355.35%
  30669  6130     9095.7630    63   -13706.9869    35001.4455   207183  355.35%
Elapsed time = 78.34 sec. (24183.88 ticks, tree = 43.98 MB, solutions = 1)
  31953  6296    15932.7323    62   -13706.9869    35001.4455   209532  355.35%
  33151  6349        cutoff         -13706.9869    35001.4455   210012  355.35%
  34348  8596        cutoff         -13706.9869    35001.4455   231019  355.35%
  35519  7749     9316.9501    54   -13706.9869    35001.4455   224355  355.35%
  36503  8459    16625.9703    50   -13706.9869    35001.4455   233113  355.35%
  37446  7453        cutoff         -13706.9869    35001.4455   223914  355.35%
  38149  8638    10799.5530     7   -13706.9869    35001.4455   233254  355.35%
  38787 13251        cutoff         -13706.9869    35001.4455   267569  355.35%
  39350  9837    11988.8150    62   -13706.9869    35001.4455   243753  355.35%
  39747  9096     3789.1902    70   -13706.9869    35001.4455   236268  355.35%
Elapsed time = 105.05 sec. (33737.07 ticks, tree = 67.74 MB, solutions = 1)
  40048  9978    10725.8778    50   -13706.9869    35001.4455   245074  355.35%
  40336  9261     8652.3812    52   -13706.9869    35001.4455   237557  355.35%
  40511 10049        cutoff         -13706.9869    35001.4455   246218  355.35%
  40706 15694    -1413.7535    23   -13706.9869    35001.4455   295320  355.35%
  40918  9434      526.4730    97   -13706.9869    35001.4455   239318  355.35%
  41232  9791    11896.3376     5   -13706.9869    35001.4455   242507  355.35%
  41534  9101    10064.5209    47   -13706.9869    35001.4455   236863  355.35%
  41751  9161    16998.1924    60   -13706.9869    35001.4455   237744  355.35%
  41930 15916     8631.3625     6   -13706.9869    35001.4455   297013  355.35%
  42100 11640    12937.1347    11   -13706.9869    35001.4455   256606  355.35%
Elapsed time = 114.38 sec. (43291.61 ticks, tree = 88.56 MB, solutions = 1)
  42302 10930        cutoff         -13706.9869    35001.4455   251304  355.35%
  42422 10933    12937.1347    11   -13706.9869    35001.4455   251321  355.35%
  42518 10907        cutoff         -13706.9869    35001.4455   250371  355.35%
  42606 14493        cutoff         -13706.9869    35001.4455   282518  355.35%
  42745 14496     2884.6397     7   -13706.9869    35001.4455   282522  355.35%
  42853 10316     1190.5392    13   -13706.9869    35001.4455   246008  355.35%
  42963 11366    11896.3376     5   -13706.9869    35001.4455   255344  355.35%
  43052 11427      980.6652    11   -13706.9869    35001.4455   255584  355.35%
  43169 11366        cutoff         -13706.9869    35001.4455   255346  355.35%
  43290 11351    11896.3376     6   -13706.9869    35001.4455   254996  355.35%
Elapsed time = 114.61 sec. (52909.59 ticks, tree = 86.15 MB, solutions = 1)
  43477 11534    11896.3376     7   -13706.9869    35001.4455   256287  355.35%
  43638 11457    11896.3376     6   -13706.9869    35001.4455   255770  355.35%
  43849 12482    10139.4337    53   -13706.9869    35001.4455   263199  355.35%
  44056 12589    11896.3376    30   -13706.9869    35001.4455   263544  355.35%
  44191 12654    11896.3376    12   -13706.9869    35001.4455   264343  355.35%
  44285 13195        cutoff         -13706.9869    35001.4455   267373  355.35%
  44360 15430        cutoff         -13706.9869    35001.4455   289719  355.35%
  44445 11540    11896.3376     6   -13706.9869    35001.4455   256321  355.35%
  44515 12330    11896.3376     7   -13706.9869    35001.4455   262269  355.35%
  44647 14509    10748.5379     7   -13706.9869    35001.4455   282517  355.35%
Elapsed time = 118.02 sec. (62548.65 ticks, tree = 111.92 MB, solutions = 1)
  44817 14564     -628.9714    50   -13706.9869    35001.4455   283081  355.35%
  45118 14669    14235.1987    72   -13706.9869    35001.4455   283710  355.35%
  45565 15741    12937.1347    47   -13706.9869    35001.4455   296012  355.35%
  46010 14185    11144.8881    56   -13706.9869    35001.4455   278617  355.35%
  46270 14234    10413.2164    56   -13706.9869    35001.4455   279536  355.35%
  46554 14334    11144.8881    14   -13706.9869    35001.4455   280437  355.35%
  46739 16024    16942.3326    52   -13706.9869    35001.4455   297836  355.35%
  46891 14806    11144.8881    17   -13706.9869    35001.4455   285056  355.35%
  47077 16151    18762.8023    65   -13706.9869    35001.4455   298778  355.35%
  47324 15854     3632.7677     7   -13706.9869    35001.4455   296959  355.35%
Elapsed time = 122.59 sec. (72108.35 ticks, tree = 122.62 MB, solutions = 1)
  47548 15704    11106.5802     6   -13706.9869    35001.4455   295581  355.35%
  47695 16366    18786.6451    66   -13706.9869    35001.4455   300455  355.35%
  47839 15744     9855.3415     9   -13706.9869    35001.4455   295660  355.35%

Clique cuts applied:  2
Cover cuts applied:  29
Implied bound cuts applied:  23
Flow cuts applied:  307
Mixed integer rounding cuts applied:  35
Gomory fractional cuts applied:  129

Root node processing (before b&c):
  Real time             =   11.52 sec. (7590.03 ticks)
Parallel b&c, 32 threads:
  Real time             =  111.56 sec. (68149.37 ticks)
  Sync time (average)   =    1.35 sec.
  Wait time (average)   =    0.19 sec.
                          ------------
Total (root+branch&cut) =  123.08 sec. (75739.40 ticks)

Solution pool: 1 solution saved.

MIP - Deterministic time limit exceeded, integer feasible:  Objective = -1.3706986851e+04
Current MIP best bound =  3.5001445522e+04 (gap = 48708.4, 355.35%)
Solution time =  123.11 sec.  Iterations = 348484  Nodes = 47842 (21758)
Deterministic time = 75739.56 ticks  (615.22 ticks/sec)

CPLEX> Incumbent solution written to file 'C:\Users\llavin\Desktop\test919\logs\tmp0t_nkeon.cplex.sol'.
CPLEX> Exporting results... 
